lbl,CUST NO.,READY TIME,XCOORD.,YCOORD.,DEMAND,DUE DATE,SERVICE TIME
13,93,51,28,99,10,226,90
13,55,118,26,105,40,177,90
13,135,170,28,107,20,311,90
13,58,211,21,115,10,471,90
13,184,317,31,112,20,565,90
13,37,519,32,106,10,740,90
13,199,534,34,108,10,539,90
13,81,706,34,104,10,737,90
13,138,753,36,105,20,876,90
13,137,848,35,102,10,966,90
13,183,951,35,99,20,1049,90
